; DUP3 POP => 
(set-option :produce-proofs true)
; 
(set-info :status unknown)
(declare-fun storage_t ((_ BitVec 256) (_ BitVec 256) (_ BitVec 256) Int (_ BitVec 256)) (_ BitVec 256))
(declare-fun storage_s ((_ BitVec 256) (_ BitVec 256) (_ BitVec 256) Int (_ BitVec 256)) (_ BitVec 256))
(declare-fun exc_halt_t (Int) Bool)
(declare-fun exc_halt_s (Int) Bool)
(declare-fun stack_t ((_ BitVec 256) (_ BitVec 256) (_ BitVec 256) Int (_ BitVec 6)) (_ BitVec 256))
(declare-fun stack_s ((_ BitVec 256) (_ BitVec 256) (_ BitVec 256) Int (_ BitVec 6)) (_ BitVec 256))
(declare-fun sc_t (Int) (_ BitVec 6))
(declare-fun sc_s (Int) (_ BitVec 6))
(declare-fun used_gas_t ((_ BitVec 256) (_ BitVec 256) (_ BitVec 256) Int) Int)
(declare-fun used_gas_s ((_ BitVec 256) (_ BitVec 256) (_ BitVec 256) Int) Int)
(assert
 (exists ((x_0 (_ BitVec 256)) (x_1 (_ BitVec 256)) (x_2 (_ BitVec 256)) )(let (($x3681 (forall ((w (_ BitVec 256)) )(let ((?x8931 (storage_t x_0 x_1 x_2 0 w)))
 (let ((?x10013 (storage_s x_0 x_1 x_2 2 w)))
 (= ?x10013 ?x8931))))
 ))
 (let (($x56 (exc_halt_t 0)))
 (let (($x3200 (exc_halt_s 2)))
 (let (($x11620 (= $x3200 $x56)))
 (let (($x950 (forall ((n (_ BitVec 6)) )(let ((?x4599 (stack_t x_0 x_1 x_2 0 n)))
 (let ((?x11291 (stack_s x_0 x_1 x_2 2 n)))
 (let (($x8132 (= ?x11291 ?x4599)))
 (let ((?x63 (sc_t 0)))
 (let (($x632 (bvsle ?x63 n)))
 (or $x632 $x8132)))))))
 ))
 (let ((?x63 (sc_t 0)))
 (let ((?x2620 (sc_s 2)))
 (let (($x10800 (= ?x2620 ?x63)))
 (let ((?x2289 (used_gas_t x_0 x_1 x_2 0)))
 (let ((?x2066 (used_gas_s x_0 x_1 x_2 0)))
 (let (($x871 (= ?x2066 ?x2289)))
 (let (($x11584 (forall ((w (_ BitVec 256)) )(let ((?x8931 (storage_t x_0 x_1 x_2 0 w)))
 (let ((?x1969 (storage_s x_0 x_1 x_2 0 w)))
 (= ?x1969 ?x8931))))
 ))
 (let (($x57 (exc_halt_s 0)))
 (let (($x58 (= $x57 $x56)))
 (let (($x3841 (forall ((n (_ BitVec 6)) )(let ((?x4599 (stack_t x_0 x_1 x_2 0 n)))
 (let ((?x9641 (stack_s x_0 x_1 x_2 0 n)))
 (let (($x6752 (= ?x9641 ?x4599)))
 (let ((?x63 (sc_t 0)))
 (let (($x632 (bvsle ?x63 n)))
 (or $x632 $x6752)))))))
 ))
 (let ((?x72 (sc_s 0)))
 (let (($x73 (= ?x72 ?x63)))
 (let (($x6882 (= $x3200 (or (exc_halt_s 1) (not (bvsle (_ bv0 6) (bvadd (_ bv63 6) (sc_s 1))))))))
 (let (($x10852 (forall ((w (_ BitVec 256)) )(let ((?x11131 (storage_s x_0 x_1 x_2 1 w)))
 (let ((?x10013 (storage_s x_0 x_1 x_2 2 w)))
 (= ?x10013 ?x11131))))
 ))
 (let (($x471 (forall ((n (_ BitVec 6)) )(let ((?x154 (sc_s 1)))
 (let ((?x8586 (bvadd (_ bv63 6) ?x154)))
 (let (($x4241 (bvsle ?x8586 n)))
 (let ((?x3752 (stack_s x_0 x_1 x_2 1 n)))
 (let ((?x11291 (stack_s x_0 x_1 x_2 2 n)))
 (let (($x3248 (= ?x11291 ?x3752)))
 (or $x3248 $x4241))))))))
 ))
 (let ((?x154 (sc_s 1)))
 (let ((?x8586 (bvadd (_ bv63 6) ?x154)))
 (let (($x3278 (= ?x2620 ?x8586)))
 (let ((?x9513 (used_gas_s x_0 x_1 x_2 2)))
 (let (($x4282 (= ?x9513 (+ 2 (used_gas_s x_0 x_1 x_2 1)))))
 (let (($x4988 (not (= ((_ extract 6 6) (bvadd (_ bv1 7) (concat (_ bv0 1) ?x72))) (_ bv0 1)))))
 (let (($x1331 (not (bvsle (_ bv0 6) (bvadd (_ bv61 6) ?x72)))))
 (let (($x10558 (exc_halt_s 1)))
 (let (($x9995 (= $x10558 (or $x57 $x1331 $x4988))))
 (let (($x1491 (forall ((w (_ BitVec 256)) )(let ((?x1969 (storage_s x_0 x_1 x_2 0 w)))
 (let ((?x11131 (storage_s x_0 x_1 x_2 1 w)))
 (= ?x11131 ?x1969))))
 ))
 (let (($x10166 (forall ((n (_ BitVec 6)) )(let ((?x9641 (stack_s x_0 x_1 x_2 0 n)))
 (let ((?x3752 (stack_s x_0 x_1 x_2 1 n)))
 (let (($x5674 (= ?x3752 ?x9641)))
 (or $x5674 (bvsle (bvadd (_ bv61 6) (sc_s 0)) n))))))
 ))
 (let (($x7558 (= ?x154 (bvadd (_ bv1 6) ?x72))))
 (let ((?x8425 (used_gas_s x_0 x_1 x_2 1)))
 (let (($x9519 (= ?x8425 (+ 3 ?x2066))))
 (let ((?x4384 (bvadd (_ bv63 6) ?x72)))
 (let ((?x11635 (stack_s x_0 x_1 x_2 0 ?x4384)))
 (let (($x11121 (= (stack_s x_0 x_1 x_2 1 ?x4384) ?x11635)))
 (let ((?x3607 (bvadd (_ bv62 6) ?x72)))
 (let ((?x2237 (stack_s x_0 x_1 x_2 0 ?x3607)))
 (let (($x6217 (= (stack_s x_0 x_1 x_2 1 ?x3607) ?x2237)))
 (let ((?x2299 (bvadd (_ bv61 6) ?x72)))
 (let ((?x9070 (stack_s x_0 x_1 x_2 0 ?x2299)))
 (let (($x8725 (= (stack_s x_0 x_1 x_2 1 ?x2299) ?x9070)))
 (let ((?x10673 (stack_s x_0 x_1 x_2 1 ?x8586)))
 (let (($x1434 (= ?x10673 ?x9070)))
 (let (($x4027 (forall ((w (_ BitVec 256)) )(let ((?x1969 (storage_s x_0 x_1 x_2 0 w)))
 (= ?x1969 (_ bv0 256))))
 ))
 (let (($x5059 (= ?x2066 0)))
 (let (($x10917 (not $x57)))
 (let (($x7721 (= (stack_s x_0 x_1 x_2 0 (_ bv2 6)) x_2)))
 (let (($x8571 (= (stack_s x_0 x_1 x_2 0 (_ bv1 6)) x_1)))
 (let (($x7573 (= (stack_s x_0 x_1 x_2 0 (_ bv0 6)) x_0)))
 (let (($x469 (= ?x72 (_ bv3 6))))
 (and $x469 $x7573 $x8571 $x7721 $x10917 $x5059 $x4027 $x1434 $x8725 $x6217 $x11121 $x9519 $x7558 $x10166 $x1491 $x9995 $x4282 $x3278 $x471 $x10852 $x6882 $x73 $x3841 $x58 $x11584 $x871 (not (and $x10800 $x950 $x11620 $x3681))))))))))))))))))))))))))))))))))))))))))))))))))))))))
 )
(check-sat)
(get-proof)
